%%MatrixMarket matrix coordinate real general
351 351 702
1 2   2.98206559483042384692e-04
1 1   5.31081182523358216740e-02
2 1   5.33829614217133513465e-02
2 2   6.62857531427465604401e-03
3 2  -4.68956478754123124580e-03
3 1   5.33833605895228449634e-02
4 2  -3.79233085489708542093e-03
4 1   5.33693276668432067811e-02
5 1   5.33683751696402836062e-02
5 2  -3.87378308490192793667e-03
6 1   5.33819712845360061504e-02
6 2  -1.13584937407132449683e-02
7 2  -5.26733989408759845086e-03
7 1   5.33804824040793046702e-02
8 1   5.33805156898989885406e-02
8 2   9.81387868227535875576e-01
9 1   5.33823857833900100589e-02
9 2  -1.16920992631954477094e-03
10 2  -7.85100888496111613823e-03
10 1   5.33876499290330056025e-02
11 2  -4.58194694698740336014e-03
11 1   5.33838226159660741987e-02
12 1   5.33831490559335125612e-02
12 2  -4.27274257845735878220e-03
13 2   8.27578477461224024103e-04
13 1   5.33861899081257487709e-02
14 2  -3.51812584155546245399e-03
14 1   5.33827542209857411337e-02
15 1   5.33613969137118615560e-02
15 2  -3.25986745031054108573e-03
16 2   8.16338338459027430816e-03
16 1   5.33821908304437167669e-02
17 2  -3.53847684638950452443e-03
17 1   5.33670493366097467569e-02
18 1   5.33151880424621929522e-02
18 2   2.57732869250073713327e-03
19 1   5.33829292645385672378e-02
19 2  -4.44843174659686341199e-03
20 2  -3.63280963989432272368e-03
20 1   5.33627386985130250374e-02
21 1   5.33813227828822609022e-02
21 2  -3.87171452001339958665e-03
22 2   3.60392130701332833592e-03
22 1   5.33833199306371561366e-02
23 1   5.33779024101676685676e-02
23 2  -3.30632558378978749433e-03
24 2   7.59907294727426782521e-03
24 1   5.33835456635789531998e-02
25 2  -5.32625049641268898809e-03
25 1   5.33764506725769860562e-02
26 1   5.33700687124164380171e-02
26 2  -3.22517766197214514681e-03
27 2  -4.72356366755892487230e-03
27 1   5.33827863134767460762e-02
28 2  -3.63156605243885243980e-03
28 1   5.33618959965591055372e-02
29 1   5.33816099988753470229e-02
29 2  -4.24216609322321074049e-03
30 1   5.33831901342950651546e-02
30 2   6.90289561947208130804e-03
31 2  -3.08999167996888268045e-03
31 1   5.33634797621442627524e-02
32 1   5.33670880080406931367e-02
32 2  -3.77971668486055045397e-03
33 1   5.33821129241180067360e-02
33 2  -7.87708680684374822067e-03
34 2  -2.92687627593669853418e-03
34 1   5.33685290376033349968e-02
35 1   5.33824675102184398323e-02
35 2  -4.22426949106615660240e-03
36 2  -3.66183503245940192294e-03
36 1   5.33624876265607478443e-02
37 2  -3.60974269712223232165e-03
37 1   5.33669216910662019826e-02
38 1   5.33671898597838784140e-02
38 2  -3.44926161845621106344e-03
39 1   5.33827425491436510785e-02
39 2  -3.51240956478133907470e-03
40 2  -3.56270390651541998470e-03
40 1   5.33829212196255120659e-02
41 1   5.33819622903073179310e-02
41 2   5.35594613694120001701e-03
42 1   5.33675870257132936580e-02
42 2  -3.74250500478483976233e-03
43 2  -3.51310639862656729979e-03
43 1   5.33833231143156297649e-02
44 2  -4.30328600475091225391e-03
44 1   5.33814120523667806628e-02
45 1   5.33824940087614455142e-02
45 2  -4.40209519021900197444e-03
46 2  -3.39721903166823871109e-03
46 1   5.33675238251859890282e-02
47 2  -2.13008723315679564594e-03
47 1   5.33818518511114531444e-02
48 1   5.33827852464052524106e-02
48 2  -6.88456336130520690081e-03
49 2  -9.94631920779636205521e-03
49 1   5.33811513490719466435e-02
50 2  -3.50088375307526988509e-03
50 1   5.33617676140021937603e-02
51 1   5.33836647441754824639e-02
51 2  -3.94213419755189836691e-03
52 1   5.33781047480466272481e-02
52 2  -9.17019763406347505896e-03
53 2  -5.11389960739835544579e-03
53 1   5.33846098631795551448e-02
54 1   5.33624440020658910577e-02
54 2  -3.34402140849512051479e-03
55 1   5.33781106167039165467e-02
55 2  -4.04072388830153082784e-03
56 2  -4.08244072577577162692e-03
56 1   5.33821924451504323250e-02
57 1   5.33688774357294823392e-02
57 2  -3.53359061907211743567e-03
58 2  -2.39674565734114379534e-03
58 1   5.33776818522154056224e-02
59 2  -4.09563261415007810740e-03
59 1   5.33687682330195589664e-02
60 1   5.33781626150453616941e-02
60 2  -7.24664825113316424243e-03
61 1   5.33857162228429660278e-02
61 2  -7.28114921677675691614e-03
62 2  -2.37416181300114485786e-02
62 1   5.33889804335024448223e-02
63 1   5.33824015461508566416e-02
63 2   7.83052590285856185692e-03
64 1   5.33811815724304292163e-02
64 2  -4.19864149216788058727e-03
65 2  -7.79460220114776974887e-03
65 1   5.33851600130975934011e-02
66 1   5.33802108294803845379e-02
66 2   3.47306723574038493305e-03
67 2  -3.85463262222573294080e-03
67 1   5.33795968950216692672e-02
68 1   5.33808638168065813234e-02
68 2   1.83642347625688376160e-03
69 2  -4.68792588608586691112e-03
69 1   5.33824455131398506458e-02
70 2  -3.68151848684069920789e-03
70 1   5.33914674733370619997e-02
71 1   5.33691811096873372500e-02
71 2  -3.79893650621869471973e-03
72 1   5.33680339170841469554e-02
72 2  -3.57342487073383134957e-03
73 2   7.02632479295563542286e-04
73 1   5.33773147403051595461e-02
74 1   5.33846032652460084078e-02
74 2  -1.42722564499957842166e-02
75 1   5.33831650321256317993e-02
75 2  -7.43356545990564204947e-04
76 2  -1.03858043459481887150e-02
76 1   5.33890772654773970718e-02
77 2  -2.75582816870823888236e-03
77 1   5.33850074933242477182e-02
78 1   5.33676100865025579423e-02
78 2  -3.53673509730336420309e-03
79 2  -4.60953041505832768893e-03
79 1   5.33846560493511021472e-02
80 2  -4.74873892140054154609e-03
80 1   5.33840908263765526187e-02
81 1   5.33809536594178069002e-02
81 2  -2.56145993908845487352e-03
82 2  -4.30148937419598618309e-03
82 1   5.33824074850449900587e-02
83 2  -3.44548564620383900373e-03
83 1   5.33621633254415042580e-02
84 1   5.33777452524136636347e-02
84 2   2.21268746249189234010e-02
85 1   5.33779574899864786564e-02
85 2  -6.87463869499792788742e-03
86 2  -1.84712892580878116494e-03
86 1   5.33854169783002999172e-02
87 1   5.33689422302339386284e-02
87 2  -3.74377658116169893462e-03
88 2  -4.60628585576436551385e-03
88 1   5.33820244255213960383e-02
89 1   5.33668789027714265960e-02
89 2  -3.59748484978491579744e-03
90 2  -5.15428358456200205739e-03
90 1   5.33468341648157401425e-02
91 2  -3.36695567576814720409e-03
91 1   5.33630664131447621235e-02
92 1   5.33675817009413161474e-02
92 2  -3.08192172095126792203e-03
93 2  -5.76035570756330828068e-03
93 1   5.33798556695163489705e-02
94 2  -3.13283549147309707539e-03
94 1   5.33686033714701260622e-02
95 1   5.33809784955951716068e-02
95 2  -4.63682534579259661434e-03
96 1   5.33815608908255676002e-02
96 2  -4.09381218797248008778e-03
97 2  -3.97090581523753313048e-03
97 1   5.33826214921840416783e-02
98 1   5.33823501119294538397e-02
98 2  -4.36433717304446529284e-03
99 1   5.33613675100379561411e-02
99 2  -3.44067509665502277091e-03
100 2  -7.79644097477509914751e-03
100 1   5.33842876934918011966e-02
101 1   5.33792864417217821638e-02
101 2  -5.68212127919709604484e-03
102 2  -7.24707573107830071990e-03
102 1   5.33794440701151479134e-02
103 2  -4.10021906152108553401e-03
103 1   5.33837164948326586833e-02
104 1   5.33692821392104319034e-02
104 2  -3.33616363480311074741e-03
105 1   5.33815665890747248490e-02
105 2  -4.09676585826024373255e-03
106 2  -7.96672655013737872343e-03
106 1   5.33824213829191956959e-02
107 1   5.33820860460676518966e-02
107 2   7.66913852890988272798e-03
108 1   5.33828853517856125044e-02
108 2  -4.76482466894813123243e-03
109 2  -8.64809116491491343404e-03
109 1   5.33728188566398517589e-02
110 1   5.33752564030997370126e-02
110 2  -4.41635635299065382187e-03
111 2  -3.90357455650124475846e-03
111 1   5.33819834270681733979e-02
112 1   5.33896629936684297135e-02
112 2  -1.87578420234546967837e-02
113 2  -4.08751846545386474108e-03
113 1   5.33814092558704128555e-02
114 2  -3.40445271686496114122e-03
114 1   5.33677623224609390395e-02
115 1   5.33678408032829537655e-02
115 2  -3.74565519072243792095e-03
116 1   5.33631119259136074695e-02
116 2  -3.51925016625578629056e-03
117 2   4.01253137910311322156e-03
117 1   5.33820149402860558152e-02
118 1   5.33786225863378746559e-02
118 2  -6.85269550083437029714e-03
119 1   5.33820883124024939126e-02
119 2  -4.70933086871719655542e-03
120 2  -3.54777233981400878099e-03
120 1   5.33615302035275809733e-02
121 2  -3.64682549028948112951e-03
121 1   5.33678832592108590149e-02
122 1   5.33620781360880577782e-02
122 2  -3.51425689908809422979e-03
123 2  -3.42181623606047004976e-03
123 1   5.33844712806639531966e-02
124 2  -7.27632527650220236465e-03
124 1   5.33864394166405353825e-02
125 1   5.33856022815782441104e-02
125 2   1.47521754109822232637e-02
126 2  -6.31235249377043797225e-03
126 1   5.33851804931417747713e-02
127 2   2.90166078888029217026e-03
127 1   5.33827148859970304628e-02
128 1   5.33673861882293723569e-02
128 2  -3.65781383224730513581e-03
129 1   5.33663214106996283692e-02
129 2  -1.75951423479855841719e-03
130 2  -8.45910993819806895921e-03
130 1   5.33875175669394352873e-02
131 1   5.33843054482297588170e-02
131 2  -9.07593768721522316245e-03
132 1   5.33820290938219060850e-02
132 2  -3.32918945461111370418e-03
133 2   7.41837877898852190300e-03
133 1   5.33822475248738673170e-02
134 1   5.33824218143474013565e-02
134 2  -1.81471372105735653454e-03
135 2  -4.47151126269920966977e-03
135 1   5.33830512343483470916e-02
136 2  -1.07388091451982616020e-02
136 1   5.33920384721183749477e-02
137 1   5.33817575527691934312e-02
137 2  -4.80430866929068382809e-03
138 1   5.33859587570039706428e-02
138 2  -1.21612731884763250467e-02
139 2  -3.55014379295206551623e-03
139 1   5.33638534295212962899e-02
140 1   5.33631085217303180457e-02
140 2  -3.04433848535673977354e-03
141 1   5.33607136216676103402e-02
141 2  -3.53372990727316088969e-03
142 2  -4.91855828593804490084e-03
142 1   5.33835000188869340798e-02
143 2  -3.05860221544650753150e-03
143 1   5.33685047886992489086e-02
144 1   5.33824427855783822938e-02
144 2  -4.23191213276969541157e-03
145 2  -2.02120236628517448152e-02
145 1   5.33890689935180087766e-02
146 2   1.46306963792822044938e-04
146 1   5.33679389906142609412e-02
147 1   5.33616942927371482042e-02
147 2  -3.54356014485542785211e-03
148 2   3.03321882832444707917e-03
148 1   5.33856765396736182572e-02
149 2   1.83192328912267594562e-03
149 1   5.33831777096060722254e-02
150 1   5.33820891437633629484e-02
150 2  -6.90484375804695672124e-03
151 1   5.33826559787895851827e-02
151 2  -3.96410811106612161886e-03
152 2  -3.96421467568265194908e-03
152 1   5.33738546926781423640e-02
153 1   5.33825805927752097824e-02
153 2   5.38815352366917889315e-03
154 2  -7.00829930122008615268e-03
154 1   5.33815973113592745491e-02
155 1   5.33680769961286938230e-02
155 2  -3.47949610252351560977e-03
156 2  -4.26376423419964206696e-03
156 1   5.33823125382195534661e-02
157 2  -4.33761762998722839174e-03
157 1   5.33829034763508639139e-02
158 1   5.33620272397631739691e-02
158 2  -3.42972712805384100446e-03
159 2  -3.57975590575235896873e-03
159 1   5.33627937436274984995e-02
160 2  -3.25058326062673333401e-03
160 1   5.33692227641978170216e-02
161 1   5.33667210245784423561e-02
161 2  -3.52427170124940515941e-03
162 1   5.33795944212473102986e-02
162 2   6.81387027576248129231e-04
163 2  -5.12798416671574660425e-03
163 1   5.33862389557287972397e-02
164 1   5.33675853181331261155e-02
164 2  -3.50040687137986123931e-03
165 1   5.33827454728483738466e-02
165 2  -2.32118170635307614208e-03
166 2  -5.02567840776551189724e-03
166 1   5.33812127186259754996e-02
167 1   5.33824684728798209976e-02
167 2  -3.35705173871859085741e-03
168 2  -2.66784670211489549629e-02
168 1   5.33930726402757835358e-02
169 2   9.64354966101991541161e-04
169 1   5.33802628806012216534e-02
170 1   5.33817676948542887971e-02
170 2  -2.89527125456003238402e-03
171 1   5.33829956375460809581e-02
171 2   8.52467429622096387054e-03
172 2  -3.39900505241410699070e-03
172 1   5.33687783492429526633e-02
173 1   5.33849144602559083639e-02
173 2  -1.20528000273373483292e-02
174 1   5.33853738164053320814e-02
174 2  -8.26577024219433617591e-03
175 2  -5.59921525860810394976e-03
175 1   5.33798974501240100499e-02
176 1   5.33627266779180473022e-02
176 2  -3.65051506864569937777e-03
177 2  -4.65294210810013406793e-03
177 1   5.33829791839270165199e-02
178 1   5.33693016030267405880e-02
178 2  -3.64116381501780909599e-03
179 2  -3.24731063509017944466e-03
179 1   5.33640019103113830146e-02
180 2  -4.03624704691077015872e-03
180 1   5.33831944525217233499e-02
181 1   5.33829380015518467628e-02
181 2  -4.26844244543061329678e-03
182 1   5.33677227599801962121e-02
182 2   3.43335719188109461750e-04
183 2   6.39706142360831481186e-02
183 1   5.33821110981969534914e-02
184 1   5.33880095266384899211e-02
184 2  -1.17763995149329364631e-02
185 1   5.33793760008105244719e-02
185 2  -3.82934283956955700753e-03
186 2  -3.52422369124514005961e-03
186 1   5.33682864203620932475e-02
187 2  -4.11723319117546400492e-03
187 1   5.33826648999504854709e-02
188 1   5.33821503044836567775e-02
188 2  -3.85614346662811833394e-03
189 2  -3.60068250506022109053e-03
189 1   5.33680345389870858241e-02
190 2  -2.93137764451885211858e-03
190 1   5.33785585612028615210e-02
191 1   5.33843088120475872671e-02
191 2  -3.17024771362683791334e-03
192 2  -3.58391963001503241135e-03
192 1   5.33672606090524401234e-02
193 2   1.46180189270667029028e-02
193 1   5.33813312677290444097e-02
194 1   5.33833849686087061337e-02
194 2  -4.52260797412566001308e-03
195 1   5.33827589625583062705e-02
195 2  -4.25429928129465988879e-03
196 2  -9.57842944067941641853e-04
196 1   5.33847482288647146031e-02
197 1   5.33686616086342102694e-02
197 2  -3.49558330976049071864e-03
198 2  -4.44862737709224645433e-03
198 1   5.33832480171086004583e-02
199 1   5.33848817398800412626e-02
199 2  -1.00100308106577801093e-02
200 2  -4.68011631142101810349e-03
200 1   5.33819402737473400200e-02
201 2  -5.16210088062890766480e-03
201 1   5.33709545139093993749e-02
202 1   5.33809589768975967239e-02
202 2  -4.07681509180885231353e-03
203 2  -3.64735403802622128178e-03
203 1   5.33631788453802699546e-02
204 2  -1.72474913017853963629e-03
204 1   5.33393429989126727220e-02
205 1   5.33852019807385738681e-02
205 2  -5.43818592570796677244e-03
206 1   5.33831376565045423455e-02
206 2  -3.73645370320903075917e-03
207 2  -4.11563091912891827057e-03
207 1   5.33829890758069636192e-02
208 1   5.33832715099111926316e-02
208 2  -8.35880005282576242498e-03
209 1   5.33934291091563775766e-02
209 2  -8.46988121841341611018e-03
210 2   3.79456218023428454994e-03
210 1   5.33823907866166694203e-02
211 1   5.33822015506231623005e-02
211 2  -4.22939817566534738413e-03
212 2  -6.26254872825048221341e-03
212 1   5.33777320666386709269e-02
213 2  -5.45915056895377066859e-03
213 1   5.33870588695012429636e-02
214 1   5.33679906645643520324e-02
214 2  -3.80783685353803386109e-03
215 1   5.33829584108106228180e-02
215 2  -4.11617858943852041320e-03
216 2   8.70765794534002039728e-03
216 1   5.33826171602722748810e-02
217 1   5.33683302582556376437e-02
217 2  -3.90700721799812442786e-03
218 1   5.33822126820586023710e-02
218 2  -4.82226250382308905401e-03
219 2  -3.97904806931618799243e-03
219 1   5.33690349416602871635e-02
220 2  -3.65402787570882382762e-03
220 1   5.33681085095389987072e-02
221 1   5.33819501245147778890e-02
221 2  -4.60833765315393686229e-03
222 2  -3.66459364992968369967e-03
222 1   5.33619722041464572548e-02
223 2  -3.92640895013791641627e-03
223 1   5.33835892069382533798e-02
224 1   5.33861860255258474650e-02
224 2  -5.00705400217447797739e-03
225 2  -5.40545881499792952446e-03
225 1   5.33806194485282117790e-02
226 2   9.07890317000934095326e-03
226 1   5.33827627066363191721e-02
227 1   5.33680917912639496414e-02
227 2  -3.80007663172451503469e-03
228 1   5.33827201552365057657e-02
228 2   4.67362263888830738179e-03
229 2  -3.85248246055027365395e-03
229 1   5.33685391692217819815e-02
230 1   5.33828149249202868476e-02
230 2  -4.17626619422175725943e-03
231 1   5.33814885034159525290e-02
231 2  -5.11247184083501483853e-03
232 2  -3.70143969286003578223e-03
232 1   5.33687829546957218096e-02
233 1   5.33685545965136565183e-02
233 2  -3.71374417514415758323e-03
234 2   3.06716930824929697938e-03
234 1   5.33674511693250294697e-02
235 2  -7.75420243180727480209e-03
235 1   5.33770176579173166731e-02
236 1   5.33778501289126280915e-02
236 2  -5.46297446348003212964e-04
237 1   5.33628651297044023782e-02
237 2  -3.71043722375625790316e-03
238 2   1.51462922394048158520e-03
238 1   5.33855363152620499001e-02
239 1   5.33815007606948874197e-02
239 2   1.94042185501812065700e-03
240 1   5.33876164444130676956e-02
240 2   1.50140295350421719422e-03
241 2  -6.61420449501097171274e-03
241 1   5.33855211413217928262e-02
242 1   5.33848235665530246319e-02
242 2   8.89828943069334230009e-03
243 2  -4.66318757470437009194e-03
243 1   5.33827683156598634118e-02
244 1   5.33875879984682943924e-02
244 2  -8.71831106395353112870e-03
245 2  -3.54158728722278126969e-03
245 1   5.33672510372403263723e-02
246 2  -3.64411928159026491172e-03
246 1   5.33621250777668240661e-02
247 1   5.33632785339354445697e-02
247 2  -3.34939730270287410255e-03
248 1   5.33636567519944343685e-02
248 2  -3.76800879646878479623e-03
249 2  -3.42710857723556132359e-03
249 1   5.33684855334704277841e-02
250 1   5.33630590237806484710e-02
250 2  -3.54334335788433416048e-03
251 1   5.33690480319572585488e-02
251 2  -3.22298199922166524189e-03
252 2  -3.81620100014496473756e-03
252 1   5.33679539729937854609e-02
253 2  -4.79762138808581452970e-03
253 1   5.33824739717885729529e-02
254 1   5.33824496895712943823e-02
254 2  -4.17825499424723939557e-03
255 2  -4.09629072107291995058e-03
255 1   5.33815507745517836558e-02
256 2  -3.50415609102649886278e-03
256 1   5.33689550587524777492e-02
257 1   5.33677609444637088276e-02
257 2  -3.66242358793498383809e-03
258 2  -3.57753323307625310454e-03
258 1   5.33629293689303063619e-02
259 2  -3.64097533640045595629e-03
259 1   5.33844964728339074767e-02
260 1   5.33871425340804450776e-02
260 2  -1.06443297477838896142e-02
261 1   5.33815745698802135433e-02
261 2  -9.46332069379283817578e-03
262 2  -4.10103908858452416430e-03
262 1   5.33809340074148999666e-02
263 1   5.33824552346806938119e-02
263 2  -4.94766251370058838394e-03
264 1   5.33681424445625676722e-02
264 2  -2.18972643686042231503e-03
265 2  -3.72230579447746512400e-03
265 1   5.33679248975995335069e-02
266 1   5.33792273134250580546e-02
266 2  -7.35260013846563646039e-03
267 2  -3.44235551064261827495e-03
267 1   5.33912537675308856988e-02
268 2  -4.17245683756302561396e-03
268 1   5.33803905172851589356e-02
269 1   5.33836546198290726184e-02
269 2   2.92425488957033822765e-03
270 1   5.33682178523531697278e-02
270 2  -3.40929824228636572589e-03
271 2  -3.15353699652129101927e-03
271 1   5.33814988538683712904e-02
272 1   5.33907833951830848584e-02
272 2  -9.59218056127254629917e-03
273 1   5.33805423091712125117e-02
273 2  -7.13602490474410291327e-03
274 2  -3.61604437261717681293e-03
274 1   5.33680928607775800776e-02
275 2  -3.45530063601879157756e-03
275 1   5.33645417822300738298e-02
276 1   5.33701532790130175887e-02
276 2  -2.49488661965842264262e-03
277 2  -1.29255010280442516474e-02
277 1   5.33865450457305310006e-02
278 2  -3.52537762739507133658e-03
278 1   5.33834359236679198424e-02
279 1   5.33624025309982555343e-02
279 2  -3.49977634449968140126e-03
280 2  -4.02909770412806459566e-03
280 1   5.33815039428084739392e-02
281 2  -3.56477881872648005857e-03
281 1   5.33689802198489618434e-02
282 1   5.33821462595086212999e-02
282 2  -2.99866176377751010931e-03
283 1   5.33619091033282616499e-02
283 2  -3.65617649677238724590e-03
284 2  -3.30566324514401568141e-03
284 1   5.33676785895157712591e-02
285 1   5.33742264216506279162e-02
285 2  -5.46136686071127790826e-03
286 2  -3.97750783806970122786e-03
286 1   5.33680455869251779699e-02
287 1   5.33824999824332943610e-02
287 2   5.24893825624922830131e-03
288 2  -1.78800559683567859837e-03
288 1   5.33801615637836332495e-02
289 2  -4.48172558138845884834e-03
289 1   5.33839847406818723830e-02
290 1   5.33628174477337874348e-02
290 2  -3.74571834713011012422e-03
291 2  -3.62761110711951138136e-03
291 1   5.33689760072297778026e-02
292 2  -3.89262726788113314069e-03
292 1   5.33819879244037606703e-02
293 1   5.33846379446104232769e-02
293 2  -4.72290268754351882236e-03
294 1   5.33760191767231745308e-02
294 2  -4.55308849277976431663e-03
295 2  -3.36633462292126308876e-03
295 1   5.33684544628537510524e-02
296 1   5.33818237489513611194e-02
296 2  -3.76617462429649097616e-03
297 1   5.33610686592786986893e-02
297 2  -3.31336447328437443127e-03
298 2  -3.71776986337305674971e-03
298 1   5.33831557789555821714e-02
299 1   5.33793638869979533701e-02
299 2   7.23557303790789765885e-03
300 2  -9.50958039976270742832e-03
300 1   5.33795923358531126945e-02
301 2  -7.08812803955187475946e-03
301 1   5.33874920309743289382e-02
302 1   5.33801957130005388930e-02
302 2  -5.36620147523524885363e-03
303 1   5.33680501453426617275e-02
303 2  -3.91901465041262497824e-03
304 2  -3.49249316551585248583e-03
304 1   5.33681872178184066313e-02
305 1   5.33824819429730701437e-02
305 2  -9.91809624671616436864e-03
306 1   5.33828019696536287819e-02
306 2  -1.00891061548107150575e-02
307 2  -1.09942263189329036965e-02
307 1   5.33869747783852904854e-02
308 1   5.33831968489502581288e-02
308 2   2.61538764342206112370e-03
309 2  -5.89220476981849785453e-03
309 1   5.33856440883435784395e-02
310 1   5.33679106850835083264e-02
310 2  -3.36892027949937987799e-03
311 2  -3.75193397859350510556e-03
311 1   5.33676470224004814713e-02
312 2  -3.72804379003210820467e-03
312 1   5.33687782392797613329e-02
313 1   5.33751062046507532277e-02
313 2  -4.86431298222684931065e-03
314 1   5.33824944027736433827e-02
314 2  -1.60691993635445713393e-03
315 2  -4.30135032303227519968e-03
315 1   5.33828103958294691855e-02
316 1   5.33829540718953748923e-02
316 2  -3.35067415433367311178e-03
317 1   5.33686647437220523793e-02
317 2  -3.64412197071504670443e-03
318 2   1.22068179530684141343e-02
318 1   5.33769196574384943710e-02
319 2  -5.45836340614504872924e-04
319 1   5.33875912491576717911e-02
320 1   5.33827443916483207476e-02
320 2  -3.82315423748270932780e-03
321 2  -3.32223892789979165230e-03
321 1   5.33685304863747711490e-02
322 2  -1.18029174463545553225e-02
322 1   5.33889675948444192288e-02
323 1   5.33822425366658193102e-02
323 2   5.19170100719944672268e-03
324 2  -5.87450949193225099160e-03
324 1   5.33858210867826088464e-02
325 2  -3.47925742960041115698e-03
325 1   5.33631828204410296745e-02
326 1   5.33684260982713251642e-02
326 2  -3.53549564191026023316e-03
327 1   5.33827133229439337869e-02
327 2   3.37352513362228125654e-03
328 2   8.93816808606431173478e-03
328 1   5.33793086067595665134e-02
329 1   5.33842496572704272584e-02
329 2  -3.82507162622111552761e-03
330 1   5.33886346284423926600e-02
330 2   1.47098984878941373144e-02
331 2  -8.23148005029475555994e-03
331 1   5.33810926426968104797e-02
332 1   5.33786201244146538136e-02
332 2  -3.43666369972586054418e-03
333 2  -9.26031773294539589658e-03
333 1   5.33811874989846349426e-02
334 2  -3.76298389549179629343e-03
334 1   5.33626351455958533587e-02
335 1   5.33671181289690488292e-02
335 2  -3.63322773648299020277e-03
336 1   5.33677196153550872926e-02
336 2  -3.41775748361137794024e-03
337 2  -3.57338121405829153149e-03
337 1   5.33671355888841181248e-02
338 1   5.33758050952698459568e-02
338 2  -4.97873979613489437562e-03
339 1   5.33683048250557373615e-02
339 2  -3.21689943978742138447e-03
340 2  -3.68769432272175170726e-03
340 1   5.33818846125950069448e-02
341 1   5.33835566806216896274e-02
341 2  -8.87051839583183517057e-03
342 2  -4.34348874830839913608e-03
342 1   5.33819374577200328469e-02
343 1   5.33747004906446817496e-02
343 2  -5.94193230505287838666e-03
344 1   5.33855789747778516907e-02
344 2  -2.21375481011804866802e-03
345 2  -3.39589116589149265721e-03
345 1   5.33629380343234524520e-02
346 2   1.43033046548968950651e-01
346 1   5.33486567129485764194e-02
347 2  -4.43335041326669340028e-03
347 1   5.33760435491268322994e-02
348 1   5.33671101590128121872e-02
348 2  -6.90567877404590717803e-04
349 1   5.33806550644191496469e-02
349 2   6.51105923865188344207e-03
350 2   4.00919776856716817554e-03
350 1   5.33811624566291886840e-02
351 1   5.33817115487642615546e-02
351 2   5.00666502108279912187e-03
