%%MatrixMarket vector coordinate real general
351
1   6.09172831979975723526e-03
2  -2.22730503960490475819e-04
3  -1.31574926993664742536e-02
4  -2.02224243179882252897e-02
5   5.09640257350312403384e-02
6   2.04224572176336070795e-04
7   2.39273426508004351254e-03
8   8.74884352057834661443e-05
9   7.15566757870877284686e-03
10   6.72276836297612187532e-04
11  -3.25134799106380168940e-04
12   6.70205449223761811142e-04
13   5.24523604666703147613e-04
14   1.05141565180996384744e-03
15  -5.16055138131203822160e-02
16   3.29845190880765932323e-03
17  -2.29099692533838196484e-02
18  -1.02567532274512059455e-04
19   4.57642392244417847789e-04
20  -3.97204399440251737508e-02
21   1.68893878358106208637e-03
22  -1.22923556887450719692e-04
23  -1.06597392895232674463e-04
24  -2.30708550354851712550e-04
25  -4.10160889156945191510e-04
26  -9.35492498402496104604e-03
27   1.73166681162264949126e-03
28  -8.05401299421488504893e-03
29   2.26908150261246905482e-03
30   8.81283205037368524764e-05
31  -3.65779011902569034520e-02
32   6.15899581241758295458e-02
33  -4.18751465082939540452e-03
34  -2.40350424849286661844e-02
35   7.76095333799829982697e-06
36   5.20510659174819798056e-02
37   1.33569849219292106218e-02
38  -1.03820669873620555212e-01
39  -1.62982826840183905219e-04
40  -2.16165182659327944877e-04
41  -5.96855185905677764445e-04
42  -1.44912330049540606647e-02
43   9.72374816536473443249e-04
44  -1.69806985444956044361e-04
45   2.09913640101479920252e-03
46   1.43170813511673943735e-02
47   2.35344552780633034170e-03
48   8.29205684622929026879e-05
49   2.05750666594951229366e-03
50   7.44263292522495956138e-02
51   2.44057855102951422321e-03
52  -1.11553511960646601492e-02
53   4.25037355691067707773e-04
54   2.29001166666711365727e-02
55   2.29672794761643251499e-03
56   1.01878248237401592552e-03
57   5.28387271535482594409e-02
58   1.26898912428601712277e-03
59  -6.44343658069311375769e-01
60   1.31530617195644108398e-03
61   6.78927190421985539241e-04
62  -1.01033064291325652521e-03
63  -5.94601642818839846083e-05
64   2.76610547114001506172e-03
65   1.20955195682647311667e-02
66  -1.01274918961807586931e-03
67   8.37363135204151950303e-05
68   3.32439094529115219609e-03
69   3.39788787283711556098e-03
70  -2.18260371370518986480e-04
71   1.43376232565664406965e-02
72  -2.12423007058339941011e-02
73   5.25990177548013452050e-04
74  -1.10073605058647484151e-03
75  -8.61744231305613830971e-05
76  -1.06459346710976435115e-04
77   2.33228289537406837436e-05
78   1.08544859113527160377e-02
79   7.24190697407280895188e-04
80  -4.08441922753100818914e-04
81  -1.79189326655330321593e-03
82   2.24597178705509539429e-03
83  -6.71213824168992723163e-02
84   7.75842063643057623830e-04
85   2.63411778408454387568e-03
86  -1.23857660084634134401e-03
87   4.61476664335767561287e-01
88  -1.84571085083036425141e-03
89   1.07554353837222144152e-02
90   1.33369908345910967093e-03
91  -7.62559813329064905933e-04
92  -1.65267137628600266179e-03
93  -1.29776298707246265894e-03
94   1.22678621532963938456e-02
95  -2.00651451323855013753e-02
96   2.64026392865637392002e-03
97   1.00159964426299553583e-03
98  -1.89470684477521175704e-02
99   7.30824436000349422771e-03
100  -1.78390498164310968253e-03
101  -1.14101835707720107756e-03
102   2.01057885251466287452e-03
103   1.40566593577367356278e-03
104  -2.51638390763938742112e-02
105   1.01799126427472748369e-02
106  -6.46899554305880642759e-04
107   2.73100299132326366364e-03
108  -1.12129955821306699637e-03
109  -7.96337622458972754953e-04
110  -2.16216481626946635530e-03
111   3.04603568836314176661e-04
112  -6.96119859885162999870e-04
113   5.59207092808755926172e-03
114   6.56953422467902725668e-02
115   3.87288246564951380013e-02
116  -3.68706451013669431194e-02
117  -2.88357843086418886777e-03
118  -2.24131434869706417171e-03
119   1.81538762725908160191e-03
120   8.37642798662471821380e-02
121   3.28566265394369672048e-02
122   2.42457332103521543132e-02
123  -8.00906349313001801604e-04
124   9.89291886696627118273e-05
125   1.44747306546482969397e-04
126  -3.06915878548693157359e-04
127   7.84106887477226490758e-04
128  -1.86855538203101551042e-01
129   7.04575511523964359561e-02
130  -1.08046469943925429157e-03
131  -1.69348042831574878246e-03
132   1.18113838070719320773e-04
133  -2.02906827028825073947e-03
134   9.53093418537389333936e-04
135   4.69797085636513276664e-04
136   8.27596403998050557990e-05
137  -1.45784557215077352141e-03
138  -1.11044458685770141377e-04
139   3.46879483479428790682e-02
140   1.78414996344502668757e-02
141  -5.74281218720372466091e-03
142   1.46646601744546806710e-03
143   1.12770177515011515296e-02
144   1.61903911542551751969e-03
145   1.15204943511679844953e-02
146  -6.87394604515512014364e-02
147  -1.87190634531505251115e-02
148   7.20439990749696061029e-04
149  -1.46879224817019751401e-03
150   1.81184137816456060843e-04
151  -2.78777818789249180048e-03
152  -6.14167775855316722816e-05
153   2.70825398317165203996e-04
154  -5.47144068985460239256e-05
155  -8.60011766245120379271e-02
156   3.98953848768019737892e-03
157   3.20697453518241967080e-03
158  -2.67346544218345152921e-02
159   8.49343400712751668558e-03
160   1.14440452575258561074e-01
161   7.93408773090641533665e-02
162   3.55462432580182956850e-04
163  -7.72909900420928690744e-04
164  -1.33519116355854577981e-04
165   5.47422115833791616407e-03
166   1.18002075024572338630e-02
167   4.22958391917837401523e-04
168  -1.98896492337438776828e-04
169   4.99051967323358922068e-03
170  -7.99313568048913743180e-03
171   5.90861286198434126210e-04
172  -1.77271371904741438519e-02
173  -2.56878764537076280036e-03
174  -5.19983044631414786929e-04
175   1.16869644077033010138e-02
176  -3.97529356791998939036e-02
177  -1.86744695304898395208e-03
178  -3.62383916095004171565e-02
179  -2.15291461976080851504e-02
180   1.43023570955788876038e-03
181   1.77840981458033320015e-03
182   2.30232710240608866303e-02
183  -1.86518124383692118426e-03
184   5.04975236930008228482e-04
185   4.18390569974877706699e-03
186  -3.42876932070129147867e-02
187   8.68077826806132107559e-04
188  -6.88769103307082931724e-04
189  -2.91629152916477720967e-03
190   4.25676220326596903287e-03
191  -4.31046472376384135622e-04
192   4.01638716223461991750e-02
193   2.52152426081526405671e-04
194   9.51583146053966108004e-04
195  -2.87978495563886733449e-03
196   4.74550525845786444522e-05
197  -3.39439197059215403210e-03
198  -9.20230901569825838213e-05
199  -1.04125808001794147549e-03
200   1.88473004267406159251e-03
201   1.38470879332211970446e-03
202  -2.35799907068681702249e-02
203  -9.15363701061353285393e-02
204  -1.62129732240970359479e-03
205  -1.60382774654233267037e-03
206  -1.21204577407895384977e-03
207  -6.25001407117400150509e-04
208   1.33106933668247274551e-03
209  -3.17289723141065804074e-05
210  -5.05841110528357012707e-04
211  -1.20873620034573736430e-03
212  -2.49699900335006563096e-04
213  -1.35546060218242020272e-04
214   1.59636644809033542702e-02
215  -1.07427012032817385638e-03
216  -2.30809569110268552120e-03
217   3.78615390733897036468e-02
218   2.03987965750315313612e-03
219   1.77900061805525908087e-02
220  -1.41618114116430715566e-01
221   5.53477450378839046230e-03
222   5.76010119134440640165e-02
223  -3.62405802694505912824e-04
224   6.70708560549435647662e-04
225   1.33718503636008514794e-03
226   6.40146056769094057293e-04
227   1.07489004130758708522e-01
228  -1.16555926836439454827e-03
229   8.20375949296335560401e-02
230   1.03499601481835579349e-03
231   1.10559143464818371641e-03
232   8.39080229090380554091e-03
233  -3.24783859682011635805e-02
234   7.71600205227429341778e-04
235  -4.65304016051120545271e-04
236  -1.38887388958963556643e-03
237   2.91458167450716655600e-02
238  -1.06439052719472872807e-04
239   6.33992366550394418311e-04
240   3.51008139360861500295e-06
241   3.41997364152080856898e-04
242  -2.21672235577611469529e-04
243   6.00352883655639940272e-04
244  -7.96475032246260234315e-05
245   4.84175302792553153425e-03
246  -5.47401868414513145811e-02
247  -6.25793852707946102187e-02
248   1.63973558600704949484e-01
249   1.62902035839954557883e-02
250  -6.61431269302025365286e-02
251  -3.05912243060508098891e-02
252   1.03706895375399402864e-02
253   2.40253816724733286004e-04
254   1.16415564957699857809e-03
255   3.24728318008141083467e-03
256  -2.70679733533718937591e-03
257   8.59727646425701430566e-02
258   1.40848266219934931121e-01
259   3.34569786846109320285e-04
260  -7.39653449300492455516e-05
261   1.15029346473404601309e-02
262   2.90721842736067380072e-03
263   3.32568633193814050097e-04
264  -3.33357703095533454418e-03
265  -6.97831658733540083350e-02
266  -1.16584140510713027590e-03
267   3.77300723235365092936e-05
268  -3.09336235457020186645e-03
269  -3.50835648956561148380e-04
270   3.20622537378626448756e-02
271   2.28433678469260590706e-04
272  -2.91106635007645276648e-05
273   9.56146988664713631118e-04
274   2.80701739725503331482e-03
275  -1.30085167048914651655e-01
276  -2.97157793377583953620e-02
277  -2.41665038094085595855e-04
278   4.01665237637826135278e-04
279  -9.12904405044181327389e-03
280  -2.42683186435462550090e-02
281   5.25250810153075897713e-03
282  -3.88871206570650176926e-03
283  -1.12945241935779473047e-02
284  -5.62968935563736630479e-02
285   1.69433896867734979860e-03
286   1.17674560276055939489e-02
287  -3.84703492545426122863e-04
288  -8.13145819786738419804e-04
289   4.44911634983273138969e-04
290   4.59177121593416920353e-02
291   3.67563363325742048504e-02
292   4.63186353393453369154e-03
293   5.50567202818003456101e-04
294   2.50238284186895046379e-03
295  -4.32320772419954313381e-03
296   3.39913601895039407287e-04
297   5.30713027851898886886e-04
298   5.23458591287577794035e-04
299   4.67133346102763854363e-04
300  -5.01914073076442038973e-04
301   6.93499793937889263441e-04
302  -1.33028749056211771304e-03
303   4.70812416789553392360e-02
304  -4.99554241451446306987e-02
305  -4.50958886218269451758e-04
306   1.99001202867931823934e-03
307  -2.60682481034337290571e-04
308   2.64182858745604185607e-03
309  -5.22317666506955970152e-04
310  -8.54872680610702572954e-04
311   6.24540974390838526942e-02
312  -1.18115642541612650418e-02
313   1.68878906258582888247e-03
314   1.18234720897641542442e-04
315  -2.85161115497460095850e-04
316   2.08383011711758218271e-03
317  -3.99974834408532639585e-02
318  -9.41168798612874573381e-05
319  -2.27863190075147962685e-03
320  -9.33594924076990972245e-04
321   5.04635101666177365853e-02
322  -9.74119366520662035170e-05
323   1.80932569281605612650e-03
324  -1.20386229991386282945e-03
325  -9.13179035009681512591e-03
326  -4.10831816967889631997e-02
327   2.78448250767941545003e-03
328   2.89308969592610954694e-04
329  -2.90890782173366198218e-04
330  -9.17846235082142304336e-05
331  -3.26735729711129978606e-03
332   3.82751635989991324804e-03
333  -2.77988011672908037590e-04
334   2.82160716396403013495e-02
335  -4.18406240869123383086e-02
336   2.83439908323878837770e-02
337  -5.07721969802493386381e-03
338   1.47221122724913722202e-03
339  -8.41934911565030835723e-02
340  -8.31053665711980224344e-04
341   4.83688005730476336397e-04
342  -2.58174942286245072062e-03
343  -1.36811479349976776454e-03
344  -6.20705409434319822781e-05
345  -1.10528950000640072138e-01
346  -3.22084530973190631339e-03
347   3.98725065012704965161e-04
348   1.98306316971288532081e-01
349  -9.30771780708393057721e-04
350   1.21024302185827273975e-03
351   2.76197708848090585712e-03
