%%MatrixMarket vector coordinate real general
351
1   6.09171026149274170286e-03
2  -2.22730538937607788329e-04
3  -1.31575013631555041982e-02
4  -2.02224163650620326893e-02
5   5.09640529132256575595e-02
6   2.04224055773639560441e-04
7   2.39273246233503728703e-03
8   8.74884031449074174060e-05
9   7.15566097273541510543e-03
10   6.72276038154689449013e-04
11  -3.25135493164939763048e-04
12   6.70204622926099031523e-04
13   5.24523534509734696771e-04
14   1.05141668752651456543e-03
15  -5.16055222862308593523e-02
16   3.29845393098077187613e-03
17  -2.29099426101592763827e-02
18  -1.02567183977467140461e-04
19   4.57643802047481851065e-04
20  -3.97204313934790970153e-02
21   1.68893962117635425615e-03
22  -1.22923653626763352284e-04
23  -1.06597587108718029093e-04
24  -2.30708311909256873467e-04
25  -4.10163019644849016852e-04
26  -9.35489374159668637954e-03
27   1.73166746609864632619e-03
28  -8.05396251016079339768e-03
29   2.26908154329933308899e-03
30   8.81275066481624480682e-05
31  -3.65779097129540625710e-02
32   6.15899339796410691394e-02
33  -4.18750856590812021996e-03
34  -2.40350525688881495878e-02
35   7.76065111960705020493e-06
36   5.20510657566594162060e-02
37   1.33569948554210522068e-02
38  -1.03820699343570355122e-01
39  -1.62983280194111817022e-04
40  -2.16163664281253116006e-04
41  -5.96855235536494690279e-04
42  -1.44913046283590158519e-02
43   9.72375295256256225174e-04
44  -1.69809439508399279226e-04
45   2.09913836653286955264e-03
46   1.43170922380588087897e-02
47   2.35344496259449250525e-03
48   8.29197424068407799814e-05
49   2.05750356020012199060e-03
50   7.44263141963375091104e-02
51   2.44057786643934408050e-03
52  -1.11553572770923589003e-02
53   4.25037915164881339135e-04
54   2.29001143998824839565e-02
55   2.29672700970822655370e-03
56   1.01878221310704414164e-03
57   5.28386719487015585339e-02
58   1.26898907339013130961e-03
59  -6.44343516240420188801e-01
60   1.31530742511235324010e-03
61   6.78927020151533070803e-04
62  -1.01033107870737498199e-03
63  -5.94605947900330117448e-05
64   2.76610486465422552096e-03
65   1.20955165964525945127e-02
66  -1.01275015931900761769e-03
67   8.37370612013572566089e-05
68   3.32439090189780989126e-03
69   3.39788949060272366803e-03
70  -2.18260323766817569517e-04
71   1.43376475051868804145e-02
72  -2.12422752320693616901e-02
73   5.25990496136960667718e-04
74  -1.10073724145002063701e-03
75  -8.61744080992855036221e-05
76  -1.06459362276014327586e-04
77   2.33236346461002229272e-05
78   1.08544521174070065367e-02
79   7.24190847143966510979e-04
80  -4.08441532890377551144e-04
81  -1.79189321903112583345e-03
82   2.24597117461753205750e-03
83  -6.71214292154232033960e-02
84   7.75843008901154463329e-04
85   2.63411841937605034278e-03
86  -1.23857753075645054576e-03
87   4.61476979296523981411e-01
88  -1.84571054799851654547e-03
89   1.07553905507360523380e-02
90   1.33370166223092576595e-03
91  -7.62541531963449679271e-04
92  -1.65263018297917671680e-03
93  -1.29776218477665366072e-03
94   1.22678645022547983673e-02
95  -2.00651588566011646053e-02
96   2.64027346255144707010e-03
97   1.00159913483499596852e-03
98  -1.89470751634316196543e-02
99   7.30818792126262592457e-03
100  -1.78390666323015789282e-03
101  -1.14101733231764196699e-03
102   2.01057964064232409795e-03
103   1.40566639764616260234e-03
104  -2.51638501864343382131e-02
105   1.01799105103375642223e-02
106  -6.46899063512131251331e-04
107   2.73100401501270677318e-03
108  -1.12130616514692963391e-03
109  -7.96337687431812580284e-04
110  -2.16216332177777796619e-03
111   3.04602224255557491820e-04
112  -6.96119057363525422719e-04
113   5.59207118214519790372e-03
114   6.56953725993410925232e-02
115   3.87287986915741261340e-02
116  -3.68706105699161471034e-02
117  -2.88356963951294812884e-03
118  -2.24131446328465966031e-03
119   1.81538892755694729331e-03
120   8.37642827240010767742e-02
121   3.28566637061493069250e-02
122   2.42457475089402699209e-02
123  -8.00906234284078566085e-04
124   9.89294068543330074473e-05
125   1.44746661705510141398e-04
126  -3.06915840225386443978e-04
127   7.84107871736823927068e-04
128  -1.86855551491276999920e-01
129   7.04575583587265380503e-02
130  -1.08046423704756923770e-03
131  -1.69348012277756158374e-03
132   1.18113455546635975533e-04
133  -2.02906015494884461869e-03
134   9.53094740654099933236e-04
135   4.69797734416865905762e-04
136   8.27590914696964529687e-05
137  -1.45782816713840596839e-03
138  -1.11044912985961940198e-04
139   3.46879727201469742481e-02
140   1.78414553176845860905e-02
141  -5.74282355085250356685e-03
142   1.46646570731831711078e-03
143   1.12769871037103099065e-02
144   1.61903783592807245899e-03
145   1.15204918775135122661e-02
146  -6.87395014897142636601e-02
147  -1.87190795228752114576e-02
148   7.20440120284880614575e-04
149  -1.46879254573169964505e-03
150   1.81183459164389225804e-04
151  -2.78777494298539530587e-03
152  -6.14163387381988365920e-05
153   2.70825065780534105907e-04
154  -5.47149184137509794149e-05
155  -8.60012327090068084967e-02
156   3.98954199741565450343e-03
157   3.20697276580980640201e-03
158  -2.67345961132785699121e-02
159   8.49346366001438139726e-03
160   1.14440089330559852110e-01
161   7.93408658426518059725e-02
162   3.55462510418564313613e-04
163  -7.72910405783670145276e-04
164  -1.33519089758358616661e-04
165   5.47421349236222078150e-03
166   1.18002055433260848866e-02
167   4.22959210348338343795e-04
168  -1.98896397515334750735e-04
169   4.99052166080859137265e-03
170  -7.99313612640252350861e-03
171   5.90861415047237280990e-04
172  -1.77271264137174866526e-02
173  -2.56878714311241417370e-03
174  -5.19982644747104768602e-04
175   1.16869618943957372104e-02
176  -3.97529536867561317237e-02
177  -1.86745055005429019292e-03
178  -3.62383472046887769591e-02
179  -2.15291458727715767640e-02
180   1.43023655527368780127e-03
181   1.77840912991079663948e-03
182   2.30232984500347188928e-02
183  -1.86518080196646429333e-03
184   5.04975195821404294373e-04
185   4.18391044530425342679e-03
186  -3.42876909611695077085e-02
187   8.68079184834106578304e-04
188  -6.88754959756915515444e-04
189  -2.91627482830887369697e-03
190   4.25676317823039766786e-03
191  -4.31046675625827181971e-04
192   4.01638590894976346690e-02
193   2.52151998062522160211e-04
194   9.51583696093503896181e-04
195  -2.87978468031408266214e-03
196   4.74551989711137402889e-05
197  -3.39441878915334137312e-03
198  -9.20235339268831440459e-05
199  -1.04125700592543903554e-03
200   1.88472687618515674299e-03
201   1.38470690232002065570e-03
202  -2.35800053445487517445e-02
203  -9.15363354994063876946e-02
204  -1.62129612668123076168e-03
205  -1.60382746825755203440e-03
206  -1.21204577880404049117e-03
207  -6.25001267080392119285e-04
208   1.33106925056945173472e-03
209  -3.17289596105661784466e-05
210  -5.05841856886837131814e-04
211  -1.20873843574177035690e-03
212  -2.49700613132372508003e-04
213  -1.35546628388664920943e-04
214   1.59636318455641211533e-02
215  -1.07426994696679738682e-03
216  -2.30809410937993534849e-03
217   3.78614982881052622443e-02
218   2.03988111332357308081e-03
219   1.77900164900889404263e-02
220  -1.41618253240897773448e-01
221   5.53478137285436967707e-03
222   5.76009833675011767573e-02
223  -3.62406110459950064635e-04
224   6.70708438897685342399e-04
225   1.33718531852397202152e-03
226   6.40144328930884309176e-04
227   1.07489067584308220504e-01
228  -1.16555906759674898429e-03
229   8.20376028870345580524e-02
230   1.03499501696291407171e-03
231   1.10558901444687872687e-03
232   8.39084440240311577042e-03
233  -3.24783912971482804921e-02
234   7.71599065784901163786e-04
235  -4.65302119504943875478e-04
236  -1.38887361366133582630e-03
237   2.91458262095869967412e-02
238  -1.06438897661143211989e-04
239   6.33992114433439717981e-04
240   3.51016445600038719772e-06
241   3.41996642428494201059e-04
242  -2.21672271598379543554e-04
243   6.00353794469353344888e-04
244  -7.96474727851123614911e-05
245   4.84176000111286811839e-03
246  -5.47402184877318342959e-02
247  -6.25794303473227869761e-02
248   1.63973545689059752029e-01
249   1.62902015362299569523e-02
250  -6.61431172747965340220e-02
251  -3.05912277066986738883e-02
252   1.03706668929571706184e-02
253   2.40254633860321998532e-04
254   1.16415558522660377364e-03
255   3.24728341252238008469e-03
256  -2.70677704157036179075e-03
257   8.59727564125393056704e-02
258   1.40848254827955904345e-01
259   3.34569803876612792588e-04
260  -7.39653520374025121292e-05
261   1.15029315441737018527e-02
262   2.90722004887833482961e-03
263   3.32567523962977852712e-04
264  -3.33360263888408860783e-03
265  -6.97831196576439022339e-02
266  -1.16584177766056585994e-03
267   3.77300743844351954299e-05
268  -3.09336756935726280363e-03
269  -3.50836056132392340445e-04
270   3.20622438110570173730e-02
271   2.28434452716567157685e-04
272  -2.91106346893781726352e-05
273   9.56147166281224648345e-04
274   2.80701157128348437533e-03
275  -1.30084927704038677554e-01
276  -2.97157727382023340024e-02
277  -2.41665493512199406690e-04
278   4.01664621418892019925e-04
279  -9.12893975323157344515e-03
280  -2.42683320159532839311e-02
281   5.25250100219255833256e-03
282  -3.88871070943756693555e-03
283  -1.12944936695886007788e-02
284  -5.62969273791418464703e-02
285   1.69433729373025081244e-03
286   1.17674936243968662059e-02
287  -3.84703508046814544440e-04
288  -8.13145046001704976252e-04
289   4.44912347236167010113e-04
290   4.59177404836372746177e-02
291   3.67563224034624796976e-02
292   4.63186508326337773034e-03
293   5.50567389725680617074e-04
294   2.50238298050637708939e-03
295  -4.32321654097413739931e-03
296   3.39914129228092174242e-04
297   5.30713083816093862156e-04
298   5.23459763139461661634e-04
299   4.67132768066134062505e-04
300  -5.01914081496369879863e-04
301   6.93499172276093004026e-04
302  -1.33028735077078208784e-03
303   4.70811903422082844717e-02
304  -4.99554215825515832150e-02
305  -4.50958847101909994677e-04
306   1.99000728274139780313e-03
307  -2.60682351262430203089e-04
308   2.64182798518257334550e-03
309  -5.22318142517937469838e-04
310  -8.54836278495147068070e-04
311   6.24540573299929430151e-02
312  -1.18116114269562338945e-02
313   1.68878991896091431094e-03
314   1.18235301382383902000e-04
315  -2.85161756708108529886e-04
316   2.08383090191453226522e-03
317  -3.99974703504271042465e-02
318  -9.41180590223833442092e-05
319  -2.27862519958535588924e-03
320  -9.33594982356133768625e-04
321   5.04635168812000434180e-02
322  -9.74121434278977816343e-05
323   1.80932600246502925563e-03
324  -1.20386159901178556655e-03
325  -9.13183481702312289940e-03
326  -4.10831750324944511288e-02
327   2.78447721627991719856e-03
328   2.89308297300078058611e-04
329  -2.90891290317174696072e-04
330  -9.17845009023593997504e-05
331  -3.26735707392699845086e-03
332   3.82751781154072297578e-03
333  -2.77988605186341207823e-04
334   2.82160655931292525533e-02
335  -4.18406485932188779153e-02
336   2.83440216527235458455e-02
337  -5.07722195072209114830e-03
338   1.47221162912497408395e-03
339  -8.41935147860204263770e-02
340  -8.31052509457024511132e-04
341   4.83686847317893573069e-04
342  -2.58174986615919378405e-03
343  -1.36811244426041501814e-03
344  -6.20704075505303315766e-05
345  -1.10528929030373618270e-01
346  -3.22084391262613366214e-03
347   3.98726674589908202696e-04
348   1.98306276526488273193e-01
349  -9.30773117353131634703e-04
350   1.21024132320276308489e-03
351   2.76197921613467430382e-03
